9
0 3 65 25 58 28 48 40 62 
87 0 68 28 33 60 35 2 79 
17 87 0 34 19 12 35 27 9 
11 52 3 0 21 62 73 67 19 
12 97 98 57 0 32 72 88 33 
42 5 14 52 99 0 26 61 34 
65 69 60 14 58 81 0 38 40 
2 32 40 61 39 100 6 0 75 
85 39 31 14 91 4 90 2 0 
